Minimize
	obj: 
Subject To
	c4_0: f_0,1 + f_0,2 + f_0,3 + f_0,4 + f_0,5 + f_0,6 + f_0,7 + f_0,8 + f_0,9 + f_0,10 = 0
	c4_1: f_1,1 + f_1,2 + f_1,3 + f_1,4 + f_1,5 + f_1,6 + f_1,7 + f_1,8 + f_1,9 + f_1,10 = 0
	c4_2: f_2,1 + f_2,2 + f_2,3 + f_2,4 + f_2,5 + f_2,6 + f_2,7 + f_2,8 + f_2,9 + f_2,10 = 0
	c4_3: f_3,1 + f_3,2 + f_3,3 + f_3,4 + f_3,5 + f_3,6 + f_3,7 + f_3,8 + f_3,9 + f_3,10 = 0
	c4_4: f_4,1 + f_4,2 + f_4,3 + f_4,4 + f_4,5 + f_4,6 + f_4,7 + f_4,8 + f_4,9 + f_4,10 = 0
	c4_5: f_5,1 + f_5,2 + f_5,3 + f_5,4 + f_5,5 + f_5,6 + f_5,7 + f_5,8 + f_5,9 + f_5,10 = 0
	c4_6: f_6,1 + f_6,2 + f_6,3 + f_6,4 + f_6,5 + f_6,6 + f_6,7 + f_6,8 + f_6,9 + f_6,10 = 0
	c4_7: f_7,1 + f_7,2 + f_7,3 + f_7,4 + f_7,5 + f_7,6 + f_7,7 + f_7,8 + f_7,9 + f_7,10 = 0
	c4_8: f_8,1 + f_8,2 + f_8,3 + f_8,4 + f_8,5 + f_8,6 + f_8,7 + f_8,8 + f_8,9 + f_8,10 = 0
	c4_9: f_9,1 + f_9,2 + f_9,3 + f_9,4 + f_9,5 + f_9,6 + f_9,7 + f_9,8 + f_9,9 + f_9,10 = 0
	c5_1: f_0,1 = 0
	c5_2: f_5,2 = 0
	c5_3: f_1,3 = 0
	c5_4: f_9,4 = 0
	c5_5: f_6,5 = 0
	c5_6: f_7,6 = 0
	c5_7: f_8,7 = 0
	c5_8: f_2,8 = 0
	c5_9: f_3,9 = 0
	c5_10: f_4,10 = 0
	c6_1: f_0,1 + f_5,1 = 0
	c6_2: f_0,2 + f_5,2 = 0
	c6_3: f_0,3 + f_5,3 = 0
	c6_4: f_0,4 + f_5,4 = 0
	c6_5: f_0,5 + f_5,5 = 0
	c6_6: f_0,6 + f_5,6 = 0
	c6_7: f_0,7 + f_5,7 = 0
	c6_8: f_0,8 + f_5,8 = 0
	c6_9: f_0,9 + f_5,9 = 0
	c6_10: f_0,10 + f_5,10 = 0
	c7_1: f_0,1 + f_0,2 + f_0,3 + f_0,4 + f_0,5 + f_0,6 + f_0,7 + f_0,8 + f_0,9 + f_0,10 - f_1,1 - f_1,2 - f_1,3 - f_1,4 - f_1,5 - f_1,6 - f_1,7 - f_1,8 - f_1,9 - f_1,10 = 0
	c7_2: f_5,1 + f_5,2 + f_5,3 + f_5,4 + f_5,5 + f_5,6 + f_5,7 + f_5,8 + f_5,9 + f_5,10 - f_6,1 - f_7,1 - f_8,1 - f_9,1 - f_6,2 - f_7,2 - f_8,2 - f_9,2 - f_6,3 - f_7,3 - f_8,3 - f_9,3 - f_6,4 - f_7,4 - f_8,4 - f_9,4 - f_6,5 - f_7,5 - f_8,5 - f_9,5 - f_6,6 - f_7,6 - f_8,6 - f_9,6 - f_6,7 - f_7,7 - f_8,7 - f_9,7 - f_6,8 - f_7,8 - f_8,8 - f_9,8 - f_6,9 - f_7,9 - f_8,9 - f_9,9 - f_6,10 - f_7,10 - f_8,10 - f_9,10 = 0
	c7_3: f_1,1 + f_1,2 + f_1,3 + f_1,4 + f_1,5 + f_1,6 + f_1,7 + f_1,8 + f_1,9 + f_1,10 - f_2,1 - f_2,2 - f_2,3 - f_2,4 - f_2,5 - f_2,6 - f_2,7 - f_2,8 - f_2,9 - f_2,10 = 0
	c7_4: f_9,1 + f_9,2 + f_9,3 + f_9,4 + f_9,5 + f_9,6 + f_9,7 + f_9,8 + f_9,9 + f_9,10 = 0
	c7_5: f_6,1 + f_6,2 + f_6,3 + f_6,4 + f_6,5 + f_6,6 + f_6,7 + f_6,8 + f_6,9 + f_6,10 = 0
	c7_6: f_7,1 + f_7,2 + f_7,3 + f_7,4 + f_7,5 + f_7,6 + f_7,7 + f_7,8 + f_7,9 + f_7,10 = 0
	c7_7: f_8,1 + f_8,2 + f_8,3 + f_8,4 + f_8,5 + f_8,6 + f_8,7 + f_8,8 + f_8,9 + f_8,10 = 0
	c7_8: f_2,1 + f_2,2 + f_2,3 + f_2,4 + f_2,5 + f_2,6 + f_2,7 + f_2,8 + f_2,9 + f_2,10 - f_3,1 - f_4,1 - f_3,2 - f_4,2 - f_3,3 - f_4,3 - f_3,4 - f_4,4 - f_3,5 - f_4,5 - f_3,6 - f_4,6 - f_3,7 - f_4,7 - f_3,8 - f_4,8 - f_3,9 - f_4,9 - f_3,10 - f_4,10 = 0
	c7_9: f_3,1 + f_3,2 + f_3,3 + f_3,4 + f_3,5 + f_3,6 + f_3,7 + f_3,8 + f_3,9 + f_3,10 = 0
	c7_10: f_4,1 + f_4,2 + f_4,3 + f_4,4 + f_4,5 + f_4,6 + f_4,7 + f_4,8 + f_4,9 + f_4,10 = 0
Bounds
	f_0,1 >= 0
	f_0,2 >= 0
	f_0,3 >= 0
	f_0,4 >= 0
	f_0,5 >= 0
	f_0,6 >= 0
	f_0,7 >= 0
	f_0,8 >= 0
	f_0,9 >= 0
	f_0,10 >= 0
	f_1,1 >= 0
	f_1,2 >= 0
	f_1,3 >= 0
	f_1,4 >= 0
	f_1,5 >= 0
	f_1,6 >= 0
	f_1,7 >= 0
	f_1,8 >= 0
	f_1,9 >= 0
	f_1,10 >= 0
	f_2,1 >= 0
	f_2,2 >= 0
	f_2,3 >= 0
	f_2,4 >= 0
	f_2,5 >= 0
	f_2,6 >= 0
	f_2,7 >= 0
	f_2,8 >= 0
	f_2,9 >= 0
	f_2,10 >= 0
	f_3,1 >= 0
	f_3,2 >= 0
	f_3,3 >= 0
	f_3,4 >= 0
	f_3,5 >= 0
	f_3,6 >= 0
	f_3,7 >= 0
	f_3,8 >= 0
	f_3,9 >= 0
	f_3,10 >= 0
	f_4,1 >= 0
	f_4,2 >= 0
	f_4,3 >= 0
	f_4,4 >= 0
	f_4,5 >= 0
	f_4,6 >= 0
	f_4,7 >= 0
	f_4,8 >= 0
	f_4,9 >= 0
	f_4,10 >= 0
	f_5,1 >= 0
	f_5,2 >= 0
	f_5,3 >= 0
	f_5,4 >= 0
	f_5,5 >= 0
	f_5,6 >= 0
	f_5,7 >= 0
	f_5,8 >= 0
	f_5,9 >= 0
	f_5,10 >= 0
	f_6,1 >= 0
	f_6,2 >= 0
	f_6,3 >= 0
	f_6,4 >= 0
	f_6,5 >= 0
	f_6,6 >= 0
	f_6,7 >= 0
	f_6,8 >= 0
	f_6,9 >= 0
	f_6,10 >= 0
	f_7,1 >= 0
	f_7,2 >= 0
	f_7,3 >= 0
	f_7,4 >= 0
	f_7,5 >= 0
	f_7,6 >= 0
	f_7,7 >= 0
	f_7,8 >= 0
	f_7,9 >= 0
	f_7,10 >= 0
	f_8,1 >= 0
	f_8,2 >= 0
	f_8,3 >= 0
	f_8,4 >= 0
	f_8,5 >= 0
	f_8,6 >= 0
	f_8,7 >= 0
	f_8,8 >= 0
	f_8,9 >= 0
	f_8,10 >= 0
	f_9,1 >= 0
	f_9,2 >= 0
	f_9,3 >= 0
	f_9,4 >= 0
	f_9,5 >= 0
	f_9,6 >= 0
	f_9,7 >= 0
	f_9,8 >= 0
	f_9,9 >= 0
	f_9,10 >= 0
Integer
	f_0,1
	f_0,2
	f_0,3
	f_0,4
	f_0,5
	f_0,6
	f_0,7
	f_0,8
	f_0,9
	f_0,10
	f_1,1
	f_1,2
	f_1,3
	f_1,4
	f_1,5
	f_1,6
	f_1,7
	f_1,8
	f_1,9
	f_1,10
	f_2,1
	f_2,2
	f_2,3
	f_2,4
	f_2,5
	f_2,6
	f_2,7
	f_2,8
	f_2,9
	f_2,10
	f_3,1
	f_3,2
	f_3,3
	f_3,4
	f_3,5
	f_3,6
	f_3,7
	f_3,8
	f_3,9
	f_3,10
	f_4,1
	f_4,2
	f_4,3
	f_4,4
	f_4,5
	f_4,6
	f_4,7
	f_4,8
	f_4,9
	f_4,10
	f_5,1
	f_5,2
	f_5,3
	f_5,4
	f_5,5
	f_5,6
	f_5,7
	f_5,8
	f_5,9
	f_5,10
	f_6,1
	f_6,2
	f_6,3
	f_6,4
	f_6,5
	f_6,6
	f_6,7
	f_6,8
	f_6,9
	f_6,10
	f_7,1
	f_7,2
	f_7,3
	f_7,4
	f_7,5
	f_7,6
	f_7,7
	f_7,8
	f_7,9
	f_7,10
	f_8,1
	f_8,2
	f_8,3
	f_8,4
	f_8,5
	f_8,6
	f_8,7
	f_8,8
	f_8,9
	f_8,10
	f_9,1
	f_9,2
	f_9,3
	f_9,4
	f_9,5
	f_9,6
	f_9,7
	f_9,8
	f_9,9
	f_9,10
End
